% File represents an instance of a Composite Structure problem to be solved by a CP framework
% Created on 2025-03-26 10:41:32.893
T = 50;
n = 25;
m = 40;
edges = [(1, 2),
(6, 7),
(11, 12),
(16, 17),
(21, 22),
(2, 3),
(7, 8),
(12, 13),
(17, 18),
(22, 23),
(3, 4),
(8, 9),
(13, 14),
(19, 18),
(24, 23),
(4, 5),
(9, 10),
(15, 14),
(20, 19),
(25, 24),
(1, 6),
(6, 11),
(11, 16),
(16, 21),
(2, 7),
(7, 12),
(12, 17),
(17, 22),
(3, 8),
(8, 13),
(13, 18),
(23, 18),
(4, 9),
(9, 14),
(19, 14),
(19, 24),
(5, 10),
(15, 10),
(20, 15),
(20, 25)];
counts = [|14, 10, 14, 12,
|14, 10, 14, 6,
|12, 8, 12, 6,
|12, 4, 12, 4,
|12, 2, 12, 4,
|12, 10, 12, 10,
|12, 10, 12, 4,
|10, 8, 10, 4,
|10, 4, 10, 4,
|10, 2, 10, 4,
|12, 8, 12, 8,
|12, 6, 12, 4,
|10, 4, 10, 4,
|10, 4, 10, 2,
|10, 4, 10, 6,
|10, 8, 10, 8,
|10, 6, 10, 4,
|10, 2, 10, 2,
|10, 4, 10, 6,
|10, 4, 10, 10,
|10, 6, 10, 4,
|10, 4, 10, 4,
|10, 2, 10, 4,
|10, 2, 10, 6,
|10, 2, 10, 8|];
